SDVRP instances/custom_instances/p02_12_splitx10_0.vrp
NAME:p02_12_splitx10_
BEST_KNOWN: 0
COMMENT: 0
DIMENSION: 354
CAPACITY: 1400
EDGE_WEIGHT_FORMAT: FUNCTION
EDGE_WEIGHT_TYPE: EXACT_2D
NODE_COORD_SECTION
1 0.00000 0.00000
2 23 15
3 23 15
4 50 12
5 50 12
6 50 12
7 50 12
8 50 12
9 -16 -36
10 -16 -36
11 -16 -36
12 -16 -36
13 -16 -36
14 -16 -36
15 48 -5
16 48 -5
17 48 -5
18 48 -5
19 -20 31
20 -20 31
21 -20 31
22 -20 31
23 -43 -13
24 -43 -13
25 -43 -13
26 -43 -13
27 -43 -13
28 -14 18
29 -14 18
30 -14 18
31 -14 18
32 -14 18
33 -14 18
34 -50 36
35 -50 36
36 -50 36
37 -50 36
38 -50 36
39 -8 5
40 -8 5
41 -8 5
42 -8 5
43 43 -26
44 43 -26
45 43 -26
46 43 -26
47 43 -26
48 6 -49
49 6 -49
50 6 -49
51 6 -49
52 44 21
53 44 21
54 44 21
55 44 21
56 44 21
57 44 21
58 12 36
59 12 36
60 12 36
61 12 36
62 -40 8
63 -40 8
64 -40 8
65 -40 8
66 -40 8
67 -40 18
68 -40 18
69 -40 18
70 -40 18
71 -44 1
72 -44 1
73 0 -36
74 0 -36
75 0 -36
76 0 -36
77 0 -36
78 0 -36
79 20 -48
80 20 -48
81 20 -48
82 20 -48
83 20 -48
84 -42 -41
85 -42 -41
86 -42 -41
87 -42 -41
88 18 -18
89 18 -18
90 18 -18
91 18 -18
92 18 -18
93 18 -18
94 50 -23
95 50 -23
96 50 -23
97 50 -23
98 50 -23
99 50 -23
100 50 -23
101 10 -32
102 10 -32
103 10 -32
104 10 -32
105 10 -32
106 -48 -47
107 -48 -47
108 -48 -47
109 -48 -47
110 -48 -47
111 9 -38
112 9 -38
113 9 -38
114 9 -38
115 -17 -16
116 -17 -16
117 -17 -16
118 -17 -16
119 -17 -16
120 -17 -16
121 -10 44
122 -10 44
123 -10 44
124 -10 44
125 -10 44
126 -10 44
127 -10 44
128 -50 27
129 -50 27
130 -50 27
131 -50 27
132 -50 27
133 -50 27
134 -50 27
135 -50 27
136 -9 -26
137 -9 -26
138 -9 -26
139 0 0
140 0 0
141 0 0
142 0 0
143 0 0
144 -48 5
145 -48 5
146 -48 5
147 -48 5
148 -48 5
149 -48 5
150 -48 5
151 -37 22
152 -37 22
153 -37 22
154 -37 22
155 -37 22
156 -37 22
157 48 -37
158 48 -37
159 48 -37
160 48 -37
161 48 -37
162 48 -37
163 48 -37
164 -12 -21
165 -12 -21
166 -12 -21
167 -12 -21
168 -12 -21
169 -12 -21
170 -12 -21
171 -12 -21
172 46 23
173 46 23
174 -37 -16
175 -37 -16
176 -20 -21
177 -20 -21
178 -20 -21
179 -20 -21
180 48 -37
181 48 -37
182 48 -37
183 48 -37
184 48 -37
185 48 -37
186 48 -37
187 48 -37
188 -18 -5
189 -18 -5
190 -18 -5
191 -18 -5
192 -18 -5
193 -18 -5
194 -18 -5
195 19 -15
196 19 -15
197 19 -15
198 19 -15
199 19 -15
200 19 -15
201 19 -15
202 37 9
203 37 9
204 37 9
205 37 9
206 37 9
207 5 34
208 5 34
209 5 34
210 5 34
211 5 34
212 5 34
213 -5 31
214 -5 31
215 -5 31
216 -5 31
217 -5 31
218 -36 -47
219 -36 -47
220 37 -43
221 37 -43
222 37 -43
223 37 -43
224 37 -43
225 37 -43
226 43 4
227 43 4
228 43 4
229 43 4
230 43 4
231 43 4
232 -35 -40
233 50 34
234 50 34
235 50 34
236 50 34
237 50 34
238 50 34
239 50 34
240 -14 -20
241 -14 -20
242 -14 -20
243 15 24
244 15 24
245 15 24
246 15 24
247 15 24
248 15 24
249 -27 -35
250 -6 43
251 -6 43
252 -6 43
253 -6 43
254 -6 43
255 49 -21
256 49 -21
257 49 -21
258 49 -21
259 -31 -36
260 -31 -36
261 -31 -36
262 22 -24
263 22 -24
264 22 -24
265 22 -24
266 -12 13
267 -12 13
268 -12 13
269 -12 13
270 -12 13
271 -12 13
272 1 41
273 1 41
274 1 41
275 1 41
276 1 41
277 -3 36
278 -3 36
279 -3 36
280 -3 36
281 -3 36
282 -5 -13
283 -5 -13
284 -5 -13
285 -5 -13
286 17 44
287 17 44
288 17 44
289 17 44
290 17 44
291 17 44
292 19 39
293 19 39
294 19 39
295 19 39
296 -32 13
297 -32 13
298 -15 -6
299 -15 -6
300 -15 -6
301 -16 31
302 -16 31
303 -16 31
304 -16 31
305 -16 31
306 -16 31
307 27 -43
308 27 -43
309 27 -43
310 -14 22
311 -14 22
312 -14 22
313 -14 22
314 28 -40
315 28 -40
316 28 -40
317 29 39
318 29 39
319 29 39
320 29 39
321 24 38
322 24 38
323 24 38
324 24 38
325 24 38
326 24 38
327 -1 -20
328 -1 -20
329 -1 -20
330 -19 -24
331 -19 -24
332 -19 -24
333 -19 -24
334 -19 -24
335 0 -28
336 0 -28
337 0 -28
338 0 -28
339 0 -28
340 0 -28
341 0 -28
342 -16 -47
343 -16 -47
344 -16 -47
345 -16 -47
346 19 0
347 19 0
348 19 0
349 19 0
350 14 -15
351 14 -15
352 14 -15
353 13 -14
354 13 -14
DEMAND_SECTION
1 0
2 280
3 140
4 280
5 280
6 14
7 14
8 2
9 280
10 140
11 14
12 14
13 14
14 8
15 280
16 70
17 14
18 6
19 140
20 14
21 14
22 12
23 280
24 280
25 70
26 14
27 6
28 280
29 280
30 70
31 14
32 14
33 2
34 280
35 140
36 70
37 14
38 6
39 280
40 140
41 14
42 6
43 280
44 140
45 70
46 14
47 6
48 140
49 70
50 14
51 6
52 280
53 70
54 14
55 14
56 14
57 8
58 280
59 14
60 14
61 2
62 280
63 280
64 14
65 14
66 2
67 280
68 280
69 14
70 6
71 280
72 140
73 140
74 14
75 14
76 14
77 14
78 4
79 280
80 140
81 70
82 14
83 6
84 280
85 70
86 14
87 6
88 280
89 140
90 70
91 14
92 14
93 2
94 280
95 140
96 14
97 14
98 14
99 14
100 4
101 140
102 70
103 14
104 14
105 2
106 140
107 70
108 14
109 14
110 12
111 280
112 70
113 14
114 6
115 280
116 280
117 70
118 14
119 14
120 12
121 280
122 70
123 14
124 14
125 14
126 14
127 4
128 280
129 140
130 70
131 14
132 14
133 14
134 14
135 4
136 280
137 280
138 70
139 280
140 140
141 14
142 14
143 12
144 140
145 70
146 14
147 14
148 14
149 14
150 4
151 280
152 280
153 70
154 14
155 14
156 12
157 140
158 70
159 14
160 14
161 14
162 14
163 4
164 280
165 140
166 70
167 14
168 14
169 14
170 14
171 4
172 280
173 280
174 280
175 140
176 280
177 14
178 14
179 2
180 280
181 280
182 70
183 14
184 14
185 14
186 14
187 4
188 280
189 70
190 14
191 14
192 14
193 14
194 4
195 280
196 280
197 14
198 14
199 14
200 14
201 4
202 140
203 70
204 14
205 14
206 2
207 280
208 70
209 14
210 14
211 14
212 8
213 280
214 140
215 14
216 14
217 2
218 280
219 140
220 280
221 70
222 14
223 14
224 14
225 8
226 280
227 280
228 70
229 14
230 14
231 2
232 280
233 280
234 140
235 70
236 14
237 14
238 14
239 8
240 280
241 140
242 10
243 280
244 14
245 14
246 14
247 14
248 4
249 280
250 280
251 140
252 70
253 14
254 6
255 280
256 140
257 70
258 10
259 280
260 14
261 6
262 280
263 70
264 14
265 6
266 140
267 70
268 14
269 14
270 14
271 8
272 280
273 280
274 14
275 14
276 12
277 280
278 70
279 14
280 14
281 2
282 280
283 14
284 14
285 12
286 280
287 140
288 14
289 14
290 14
291 8
292 280
293 140
294 14
295 6
296 280
297 280
298 280
299 140
300 10
301 280
302 280
303 70
304 14
305 14
306 12
307 280
308 70
309 10
310 280
311 70
312 14
313 6
314 280
315 14
316 6
317 140
318 14
319 14
320 12
321 140
322 70
323 14
324 14
325 14
326 8
327 280
328 140
329 10
330 140
331 70
332 14
333 14
334 12
335 280
336 280
337 14
338 14
339 14
340 14
341 4
342 280
343 140
344 70
345 10
346 280
347 14
348 14
349 12
350 280
351 70
352 10
353 280
354 70
DEPOT_SECTION
1
-1
EOF