SDVRP instances/custom_instances/p02_12_splitx10_0.sol
353 -1 2 226 227 229 230 228 225 348 346 345 347 -16 17 15 14 256 257 255 254 93 95 98 96 97 94 99 -21 19 18 20 300 303 302 304 305 301 212 213 214 215 216 -34 36 37 35 33 129 131 128 132 134 130 127 133 296 -38 40 39 41 -45 44 43 42 46 264 261 262 263 90 92 88 91 87 89 -50 48 49 47 81 79 78 82 80 308 307 306 313 314 315 -55 56 53 54 51 52 235 233 232 234 236 238 237 317 318 319 316 322 323 320 325 324 321 -59 58 57 60 290 288 289 285 287 286 291 294 292 293 -67 68 69 66 150 153 151 154 155 152 -70 22 25 24 26 23 174 173 -71 143 145 147 148 149 146 144 61 65 62 63 64 295 -100 101 103 104 102 112 113 110 111 76 77 75 73 74 72 344 341 343 342 137 -116 119 117 118 115 114 175 240 241 239 -122 120 123 121 125 126 124 249 251 252 250 253 279 277 278 276 280 -140 139 141 138 142 -168 167 163 165 164 135 136 281 284 282 283 -170 166 169 10 12 11 13 8 9 248 258 259 260 330 329 331 333 332 -172 171 3 5 4 6 7 202 203 201 204 205 -176 178 177 85 86 84 83 106 105 109 108 107 218 217 231 -186 180 162 179 181 182 185 161 184 183 160 158 156 157 159 223 224 222 220 219 221 -187 191 188 193 192 189 190 297 299 298 -194 199 198 200 197 196 195 349 351 350 353 352 -244 243 246 245 247 242 211 210 206 208 209 207 272 274 273 275 271 -270 267 266 265 269 268 28 30 27 32 29 31 309 311 310 312 -327 328 326 340 337 339 338 335 336 334 0 





OBJ=
2306.214
BEST_KNOWN=
0.000